{'code': [9, 15, 5, 6, 7, 4, 10, 0, 4, 12, 10, 2, 7, 7, 16, 16, 17, 11, 16, 7, 16, 12, 11, 2, 19, 17
, 10, 19, 3, 3, 5, 15, 6, 0, 2, 17, 4, 0, 14, 19, 15, 18, 13, 12, 8, 14, 4, 19, 19, 7, 10, 9, 16, 0,
 8, 11, 16, 19, 6, 9, 14, 13, 19, 14, 11, 13, 13, 9, 4, 15, 1, 15, 3, 5, 13, 16, 16, 2, 11, 3, 19, 4
, 17, 0, 1, 4, 5, 1, 11, 14, 16, 10, 3, 9, 3, 9, 1, 8, 1, 11, 5, 18, 12, 4, 4, 6, 8, 3, 5, 10, 7, 8,
 4, 5, 18, 13, 18, 7, 10, 10, 19, 15, 19, 15, 17, 6, 11, 16, 7, 19, 7, 15, 1, 13, 13, 1, 18, 18, 18,
 16, 9, 3, 1, 4, 12, 14, 19, 6, 17, 13, 15, 4, 12, 2, 2, 12, 18, 14, 8, 0, 2, 12, 17, 18, 3, 1, 1, 1
4, 6, 6, 12, 15, 3, 14, 10, 9, 6, 0, 1, 8, 15, 14, 18, 17, 6, 0, 11, 1, 15, 9, 2, 1, 6, 9, 0, 5, 9, 
2, 16, 17, 8, 8, 14, 13, 11, 12, 17, 10, 6, 18, 16, 0, 19, 4, 11, 4, 14, 18, 5, 9, 7, 18, 7, 8, 17, 
15, 5, 6, 2, 7, 8, 5, 7, 12, 3, 2, 15, 6, 0, 0], 'route': None, 'mac': [[1, 7, 7, 0, 1, 8, 6, 0, 8, 
3, 1, 3], [7, 4, 1, 4, 2, 5, 6, 0, 6, 0, 0, 3, 4], [6, 4, 9, 0, 6, 3, 0, 0, 4, 2, 2], [0, 0, 3, 7, 3
, 7, 3, 4, 2, 6, 0], [7, 3, 4, 4, 3, 9, 6, 7, 4, 1, 6, 4, 5, 0], [1, 1, 0, 2, 4, 5, 7, 7, 1, 6, 8], 
[7, 7, 4, 3, 0, 1, 1, 4, 8, 8, 1, 6, 2, 9], [0, 4, 4, 6, 8, 6, 5, 1, 1, 6, 1, 3, 4], [7, 1, 0, 3, 4,
 2, 5, 8, 8, 1, 7], [3, 0, 2, 9, 8, 3, 4, 2, 1, 2, 5, 0], [8, 4, 1, 3, 8, 4, 2, 2, 0, 3], [4, 0, 3, 
8, 6, 6, 1, 7, 8, 4, 9], [1, 2, 8, 4, 9, 6, 1, 7, 0, 0, 2], [6, 0, 1, 1, 6, 8, 3, 3, 6, 1], [0, 0, 9
, 1, 3, 8, 1, 4, 3, 1, 1, 6], [7, 0, 2, 8, 7, 6, 6, 1, 0, 1, 3, 4, 0, 4], [5, 8, 2, 7, 4, 4, 0, 6, 0
, 9, 0, 2, 4], [9, 8, 3, 4, 2, 2, 8, 1, 9, 7, 5], [2, 1, 6, 9, 2, 8, 3, 9, 9, 4, 1, 6, 4], [2, 6, 5,
 2, 4, 0, 4, 0, 7, 8, 1, 2, 9]], 'wok': None}
